p cnf 999 36
11 12 13 0
-11 -12 0
-11 -13 0
-12 -13 0
11 12 13 0
-11 -12 0
-11 -13 0
-12 -13 0
11 12 13 0
-11 -12 0
-11 -13 0
-12 -13 0
21 22 23 0
-21 -22 0
-21 -23 0
-22 -23 0
21 22 23 0
-21 -22 0
-21 -23 0
-22 -23 0
21 22 23 0
-21 -22 0
-21 -23 0
-22 -23 0
31 32 33 0
-31 -32 0
-31 -33 0
-32 -33 0
31 32 33 0
-31 -32 0
-31 -33 0
-32 -33 0
31 32 33 0
-31 -32 0
-31 -33 0
-32 -33 0
